language ESSENCE' 1.0
letting initGrid be [
[4, 3, 5, 4, 2, 3, 6], 
[5, 3, 5, 2, 2, 6, 3], 
[1, 3, 2, 5, 2, 5, 4], 
[1, 2, 6, 5, 2, 6, 2], 
[1, 5, 5, 6, 1, 5, 1], 
[2, 6, 4, 1, 2, 5, 1], 
[6, 3, 1, 1, 1, 1, 6]
]
letting goalBlocksRemaining be 39
letting noSteps be 4
